; benchmark generated from python API
(set-info :status unknown)
(declare-fun S_4 () Real)
(declare-fun L_1 () Real)
(declare-fun A_1 () Real)
(declare-fun A_2 () Real)
(declare-fun A_4 () Real)
(declare-fun A_5 () Real)
(declare-fun A_3 () Real)
(declare-fun A_0 () Real)
(declare-fun S_5 () Real)
(declare-fun S_3 () Real)
(declare-fun S_2 () Real)
(declare-fun S_1 () Real)
(declare-fun S_0 () Real)
(declare-fun C () Real)
(declare-fun B () Real)
(declare-fun L_0 () Real)
(declare-fun a () Real)
(declare-fun L0 () Real)
(assert
 (exists ((I_0 Real) (I_1 Real) (I_2 Real) (I_3 Real) (I_4 Real) (I_5 Real) (L_2 Real) (L_3 Real) (L_4 Real) (L_5 Real) )(let ((?x103 (- A_1 L_1)))
 (let (($x151 (<= ?x103 S_4)))
 (let (($x149 (>= A_5 A_4)))
 (let (($x148 (>= A_4 A_3)))
 (let (($x147 (>= A_3 A_2)))
 (let (($x146 (>= A_2 A_1)))
 (let (($x145 (>= A_1 A_0)))
 (let (($x143 (>= S_5 S_4)))
 (let (($x140 (>= S_4 S_3)))
 (let (($x137 (>= S_3 S_2)))
 (let (($x134 (>= S_2 S_1)))
 (let (($x131 (>= S_1 S_0)))
 (let ((?x178 (- A_5 L_5)))
 (let ((?x101 (* C 1.0)))
 (let ((?x179 (+ I_4 ?x101)))
 (let (($x187 (= I_4 (ite (< (+ I_3 ?x101) (- A_4 L_4)) (+ I_3 ?x101) (- A_4 L_4)))))
 (let (($x192 (= I_3 (ite (< (+ I_2 ?x101) (- A_3 L_3)) (+ I_2 ?x101) (- A_3 L_3)))))
 (let (($x196 (= I_2 (ite (< (+ I_1 ?x101) (- A_2 L_2)) (+ I_1 ?x101) (- A_2 L_2)))))
 (let (($x204 (> (- (- A_5 L_4) I_5) B)))
 (let (($x214 (> (- (- A_4 L_3) I_4) B)))
 (let (($x224 (> (- (- A_3 L_2) I_3) B)))
 (let (($x233 (> (- (- A_2 L_1) I_2) B)))
 (let (($x241 (> (- (- A_1 L_0) I_1) B)))
 (let (($x50 (= a 1.0)))
 (let ((?x46 (* 5.0 a)))
 (let (($x48 (>= B ?x46)))
 (let (($x47 (>= C ?x46)))
 (let (($x42 (>= L0 0.0)))
 (let (($x41 (>= L_0 L0)))
 (let (($x40 (>= L_0 0.0)))
 (and $x40 $x41 $x42 (<= I_0 (- A_0 L_0)) $x47 $x48 $x50 (=> $x241 (= L_1 (- (- A_1 I_1) B))) (=> (not $x241) (= L_1 L_0)) (=> $x233 (= L_2 (- (- A_2 I_2) B))) (=> (not $x233) (= L_2 L_1)) (=> $x224 (= L_3 (- (- A_3 I_3) B))) (=> (not $x224) (= L_3 L_2)) (=> $x214 (= L_4 (- (- A_4 I_4) B))) (=> (not $x214) (= L_4 L_3)) (=> $x204 (= L_5 (- (- A_5 I_5) B))) (=> (not $x204) (= L_5 L_4)) (= I_1 (ite (< (+ I_0 ?x101) ?x103) (+ I_0 ?x101) ?x103)) $x196 $x192 $x187 (= I_5 (ite (< ?x179 ?x178) ?x179 ?x178)) (>= S_0 (- I_0 ?x101)) (<= S_0 I_0) (>= S_1 I_0) $x131 (<= S_1 I_1) (>= S_2 I_1) $x134 (<= S_2 I_2) (>= S_3 I_2) $x137 (<= S_3 I_3) (>= S_4 I_3) $x140 (<= S_4 I_4) (>= S_5 I_4) $x143 (<= S_5 I_5) $x145 $x146 $x147 $x148 $x149 (> (- A_2 L_2) S_4) $x151))))))))))))))))))))))))))))))))
 )
(check-sat)
